(declare-const BAV1 Bool)
(declare-const BAV2 Bool)
(declare-const BAV3 Bool)
(declare-const a Bool)
(declare-const b Bool)
(declare-const c Bool)
(declare-const d Bool)
(assert (and a (or b (and d a))))
(apply simplify)
(apply ctx-solver-simplify)
(assert (= BAV1 (and a (or b (and d a)))))
(assert (= BAV2 (or b (and d a))))
(assert (= BAV3 (and d a)))